Route #1: 3 37 46 44 30 8 77 66 35 74
Route #2: 68 29 40 41
Route #3: 56 75 14 58 65
Route #4: 36 21 47 25
Route #5: 10 17 70 73 88
Route #6: 50 38 7 15
Route #7: 71 93 79
Route #8: 55 91 87
Route #9: 69 85 67 2 16
Route #10: 43 11 89 48
Route #11: 5 26 83
Route #12: 19 64 60
Route #13: 78 61 45 101
Route #14: 13 59 23
Route #15: 4 49 97
Route #16: 18 81 6
Route #17: 9 42 22 82
Route #18: 95 57 62
Route #19: 24 20 98 33
Route #20: 28 92 39
Route #21: 80 51 31 86
Route #22: 53 84 27
Route #23: 52 32 12
Route #24: 63 100 99 72 90
Route #25: 76 54 96
Route #26: 94 34
